# Solution for model p01_budget_0p200
# Objective value = 2.0000000000006279e-01
Risk 2.0000000000006279e-01
0 0
1 0
3 0.001
4 30.001
5 3.0002000000000002e+01
6 40.002
7 3.7947311644431515e+01
9 7.8822382173852390e+01
c(0,1)_Rl 0.001
c(0,1)_Ru 0
c(0,3)_Rl 0
c(0,3)_Ru 0
c(3,4)_Rl 0
c(3,4)_Ru 0
c(4,5)_Rl 0
c(4,5)_Ru 0
c(3,5)_Rl 0
c(3,5)_Ru 0
c(1,2)_l 0
c(1,2)_u 3.7946311644431518e+01
c(2,7)_Fl 0
c(2,7)_Fu 1.1148486569272231e-01
c(1,7)_Rl 0
c(1,7)_Ru 0
c(5,6)_Rl 0
c(5,6)_Ru 0
c(3,6)_Rl 0
c(3,6)_Ru 0
c(7,8)_l 0
c(7,8)_u 4.0874070529420869e+01
c(1,8)_Fl 0
c(1,8)_Fu 4.4257567153670241e-02
c(0,9)_Rl 0
c(0,9)_Ru 4.2821782173852391e+01
c(8,9)_Fl 0
c(8,9)_Fu 4.4257567153670241e-02
c(6,9)_Rl 0
c(6,9)_Ru 0
Cost 4.2822782173852389e+01
